c 
c %% The CATS webpage is http://robotics.stanford.edu/CATS
c 
c %% PARAMETER SETTINGS:
c % Goods: 60; Bids: 130; Distribution: paths; Runs: 30; Seed: 1151601921
c % Paths Distribution Parameters:
c % Initial connections:       = 2
c % Edge density:              = 3.000000
c % Shipping cost factor:      = 1.500000
c % Max bid set size:          = 5
c % Building penalty:          = 1.700000
c 
c 
c 
c PSEUDOBOOLEAN 97315
p wcnf 130 1936 97315
138 1 0
980 2 0
980 3 0
980 4 0
980 5 0
980 6 0
760 7 0
760 8 0
760 9 0
781 10 0
1028 11 0
1028 12 0
1028 13 0
1028 14 0
628 15 0
628 16 0
628 17 0
628 18 0
532 19 0
532 20 0
429 21 0
429 22 0
429 23 0
429 24 0
429 25 0
240 26 0
240 27 0
655 28 0
655 29 0
980 30 0
980 31 0
980 32 0
980 33 0
980 34 0
947 35 0
947 36 0
947 37 0
947 38 0
947 39 0
564 40 0
564 41 0
564 42 0
85 43 0
980 44 0
980 45 0
980 46 0
980 47 0
980 48 0
584 49 0
589 50 0
589 51 0
589 52 0
768 53 0
768 54 0
768 55 0
768 56 0
194 57 0
194 58 0
805 59 0
805 60 0
621 61 0
621 62 0
452 63 0
1006 64 0
1006 65 0
1006 66 0
1006 67 0
1006 68 0
829 69 0
829 70 0
829 71 0
829 72 0
829 73 0
936 74 0
429 75 0
429 76 0
429 77 0
429 78 0
429 79 0
996 80 0
996 81 0
996 82 0
996 83 0
996 84 0
105 85 0
864 86 0
864 87 0
410 88 0
844 89 0
844 90 0
844 91 0
844 92 0
844 93 0
524 94 0
524 95 0
524 96 0
121 97 0
419 98 0
451 99 0
451 100 0
526 101 0
526 102 0
526 103 0
308 104 0
1181 105 0
1181 106 0
1181 107 0
1181 108 0
1181 109 0
424 110 0
885 111 0
955 112 0
955 113 0
955 114 0
955 115 0
955 116 0
55 117 0
1343 118 0
449 119 0
659 120 0
659 121 0
1209 122 0
1209 123 0
874 124 0
874 125 0
874 126 0
874 127 0
874 128 0
812 129 0
812 130 0
97315 -1 -37 0
97315 -1 -38 0
97315 -1 -52 0
97315 -1 -90 0
97315 -1 -92 0
97315 -1 -109 0
97315 -2 -5 0
97315 -2 -30 0
97315 -2 -33 0
97315 -2 -44 0
97315 -2 -47 0
97315 -2 -67 0
97315 -2 -68 0
97315 -2 -120 0
97315 -2 -121 0
97315 -2 -126 0
97315 -2 -127 0
97315 -2 -128 0
97315 -2 -3 0
97315 -2 -4 0
97315 -2 -6 0
97315 -3 -31 0
97315 -3 -45 0
97315 -3 -64 0
97315 -3 -65 0
97315 -3 -66 0
97315 -3 -98 0
97315 -3 -124 0
97315 -3 -125 0
97315 -3 -4 0
97315 -3 -5 0
97315 -3 -6 0
97315 -4 -19 0
97315 -4 -26 0
97315 -4 -32 0
97315 -4 -41 0
97315 -4 -46 0
97315 -4 -6 0
97315 -4 -34 0
97315 -4 -48 0
97315 -4 -97 0
97315 -4 -103 0
97315 -4 -5 0
97315 -4 -20 0
97315 -4 -29 0
97315 -4 -33 0
97315 -4 -42 0
97315 -4 -47 0
97315 -4 -110 0
97315 -5 -6 0
97315 -5 -20 0
97315 -5 -27 0
97315 -5 -33 0
97315 -5 -34 0
97315 -5 -42 0
97315 -5 -47 0
97315 -5 -48 0
97315 -5 -85 0
97315 -5 -110 0
97315 -5 -19 0
97315 -5 -29 0
97315 -5 -32 0
97315 -5 -41 0
97315 -5 -46 0
97315 -5 -30 0
97315 -5 -44 0
97315 -5 -67 0
97315 -5 -68 0
97315 -5 -120 0
97315 -5 -121 0
97315 -5 -126 0
97315 -5 -127 0
97315 -5 -128 0
97315 -5 -70 0
97315 -5 -71 0
97315 -5 -72 0
97315 -5 -73 0
97315 -5 -114 0
97315 -5 -115 0
97315 -6 -20 0
97315 -6 -27 0
97315 -6 -33 0
97315 -6 -34 0
97315 -6 -42 0
97315 -6 -47 0
97315 -6 -48 0
97315 -6 -85 0
97315 -6 -110 0
97315 -6 -10 0
97315 -6 -40 0
97315 -6 -80 0
97315 -6 -81 0
97315 -6 -116 0
97315 -6 -32 0
97315 -6 -46 0
97315 -6 -97 0
97315 -6 -103 0
97315 -6 -19 0
97315 -6 -29 0
97315 -6 -41 0
97315 -7 -71 0
97315 -7 -72 0
97315 -7 -93 0
97315 -7 -121 0
97315 -7 -127 0
97315 -7 -128 0
97315 -7 -8 0
97315 -7 -9 0
97315 -7 -102 0
97315 -7 -116 0
97315 -7 -14 0
97315 -7 -118 0
97315 -8 -9 0
97315 -8 -73 0
97315 -8 -102 0
97315 -8 -120 0
97315 -8 -116 0
97315 -8 -13 0
97315 -9 -14 0
97315 -9 -15 0
97315 -9 -18 0
97315 -9 -22 0
97315 -9 -25 0
97315 -9 -55 0
97315 -9 -56 0
97315 -9 -58 0
97315 -9 -76 0
97315 -9 -79 0
97315 -9 -84 0
97315 -9 -95 0
97315 -9 -96 0
97315 -9 -121 0
97315 -9 -73 0
97315 -9 -102 0
97315 -9 -120 0
97315 -9 -116 0
97315 -9 -118 0
97315 -10 -20 0
97315 -10 -27 0
97315 -10 -34 0
97315 -10 -40 0
97315 -10 -42 0
97315 -10 -48 0
97315 -10 -80 0
97315 -10 -81 0
97315 -10 -116 0
97315 -10 -19 0
97315 -10 -26 0
97315 -10 -102 0
97315 -10 -103 0
97315 -10 -69 0
97315 -10 -87 0
97315 -10 -113 0
97315 -11 -12 0
97315 -11 -13 0
97315 -11 -14 0
97315 -12 -111 0
97315 -12 -13 0
97315 -12 -14 0
97315 -13 -14 0
97315 -13 -43 0
97315 -13 -82 0
97315 -13 -83 0
97315 -13 -84 0
97315 -13 -101 0
97315 -13 -118 0
97315 -13 -15 0
97315 -13 -17 0
97315 -13 -18 0
97315 -13 -54 0
97315 -13 -55 0
97315 -13 -56 0
97315 -13 -103 0
97315 -14 -15 0
97315 -14 -18 0
97315 -14 -22 0
97315 -14 -25 0
97315 -14 -55 0
97315 -14 -56 0
97315 -14 -58 0
97315 -14 -76 0
97315 -14 -79 0
97315 -14 -84 0
97315 -14 -95 0
97315 -14 -96 0
97315 -14 -121 0
97315 -14 -43 0
97315 -14 -82 0
97315 -14 -83 0
97315 -14 -101 0
97315 -14 -118 0
97315 -14 -17 0
97315 -14 -54 0
97315 -14 -103 0
97315 -15 -21 0
97315 -15 -22 0
97315 -15 -56 0
97315 -15 -59 0
97315 -15 -72 0
97315 -15 -75 0
97315 -15 -76 0
97315 -15 -93 0
97315 -15 -96 0
97315 -15 -128 0
97315 -15 -18 0
97315 -15 -25 0
97315 -15 -55 0
97315 -15 -58 0
97315 -15 -79 0
97315 -15 -84 0
97315 -15 -95 0
97315 -15 -121 0
97315 -15 -17 0
97315 -15 -54 0
97315 -15 -83 0
97315 -15 -101 0
97315 -15 -103 0
97315 -15 -16 0
97315 -16 -17 0
97315 -16 -18 0
97315 -16 -23 0
97315 -16 -24 0
97315 -16 -25 0
97315 -16 -39 0
97315 -16 -51 0
97315 -16 -52 0
97315 -16 -56 0
97315 -16 -60 0
97315 -16 -61 0
97315 -16 -62 0
97315 -16 -66 0
97315 -16 -72 0
97315 -16 -77 0
97315 -16 -78 0
97315 -16 -79 0
97315 -16 -96 0
97315 -16 -104 0
97315 -16 -108 0
97315 -16 -109 0
97315 -16 -117 0
97315 -16 -119 0
97315 -16 -125 0
97315 -16 -128 0
97315 -16 -129 0
97315 -16 -130 0
97315 -16 -53 0
97315 -16 -82 0
97315 -17 -18 0
97315 -17 -23 0
97315 -17 -24 0
97315 -17 -25 0
97315 -17 -39 0
97315 -17 -51 0
97315 -17 -52 0
97315 -17 -56 0
97315 -17 -60 0
97315 -17 -61 0
97315 -17 -62 0
97315 -17 -66 0
97315 -17 -72 0
97315 -17 -77 0
97315 -17 -78 0
97315 -17 -79 0
97315 -17 -96 0
97315 -17 -104 0
97315 -17 -108 0
97315 -17 -109 0
97315 -17 -117 0
97315 -17 -119 0
97315 -17 -125 0
97315 -17 -128 0
97315 -17 -129 0
97315 -17 -130 0
97315 -17 -54 0
97315 -17 -73 0
97315 -17 -83 0
97315 -17 -94 0
97315 -17 -55 0
97315 -17 -84 0
97315 -17 -101 0
97315 -17 -103 0
97315 -18 -23 0
97315 -18 -24 0
97315 -18 -25 0
97315 -18 -39 0
97315 -18 -51 0
97315 -18 -52 0
97315 -18 -56 0
97315 -18 -60 0
97315 -18 -61 0
97315 -18 -62 0
97315 -18 -66 0
97315 -18 -72 0
97315 -18 -77 0
97315 -18 -78 0
97315 -18 -79 0
97315 -18 -96 0
97315 -18 -104 0
97315 -18 -108 0
97315 -18 -109 0
97315 -18 -117 0
97315 -18 -119 0
97315 -18 -125 0
97315 -18 -128 0
97315 -18 -129 0
97315 -18 -130 0
97315 -18 -22 0
97315 -18 -55 0
97315 -18 -58 0
97315 -18 -76 0
97315 -18 -84 0
97315 -18 -95 0
97315 -18 -121 0
97315 -18 -71 0
97315 -18 -127 0
97315 -18 -54 0
97315 -18 -83 0
97315 -18 -101 0
97315 -18 -103 0
97315 -19 -26 0
97315 -19 -32 0
97315 -19 -41 0
97315 -19 -46 0
97315 -19 -20 0
97315 -19 -29 0
97315 -19 -33 0
97315 -19 -34 0
97315 -19 -42 0
97315 -19 -47 0
97315 -19 -48 0
97315 -19 -110 0
97315 -19 -27 0
97315 -19 -80 0
97315 -19 -81 0
97315 -19 -102 0
97315 -19 -103 0
97315 -20 -27 0
97315 -20 -33 0
97315 -20 -34 0
97315 -20 -42 0
97315 -20 -47 0
97315 -20 -48 0
97315 -20 -85 0
97315 -20 -110 0
97315 -20 -40 0
97315 -20 -80 0
97315 -20 -81 0
97315 -20 -116 0
97315 -20 -29 0
97315 -20 -32 0
97315 -20 -41 0
97315 -20 -46 0
97315 -20 -26 0
97315 -20 -102 0
97315 -20 -103 0
97315 -21 -22 0
97315 -21 -56 0
97315 -21 -59 0
97315 -21 -72 0
97315 -21 -75 0
97315 -21 -76 0
97315 -21 -93 0
97315 -21 -96 0
97315 -21 -128 0
97315 -21 -23 0
97315 -21 -57 0
97315 -21 -77 0
97315 -21 -24 0
97315 -21 -25 0
97315 -22 -56 0
97315 -22 -59 0
97315 -22 -72 0
97315 -22 -75 0
97315 -22 -76 0
97315 -22 -93 0
97315 -22 -96 0
97315 -22 -128 0
97315 -22 -25 0
97315 -22 -55 0
97315 -22 -58 0
97315 -22 -79 0
97315 -22 -84 0
97315 -22 -95 0
97315 -22 -121 0
97315 -22 -24 0
97315 -22 -78 0
97315 -22 -23 0
97315 -23 -24 0
97315 -23 -25 0
97315 -23 -39 0
97315 -23 -51 0
97315 -23 -52 0
97315 -23 -56 0
97315 -23 -60 0
97315 -23 -61 0
97315 -23 -62 0
97315 -23 -66 0
97315 -23 -72 0
97315 -23 -77 0
97315 -23 -78 0
97315 -23 -79 0
97315 -23 -96 0
97315 -23 -104 0
97315 -23 -108 0
97315 -23 -109 0
97315 -23 -117 0
97315 -23 -119 0
97315 -23 -125 0
97315 -23 -128 0
97315 -23 -129 0
97315 -23 -130 0
97315 -23 -57 0
97315 -23 -75 0
97315 -23 -55 0
97315 -23 -71 0
97315 -23 -84 0
97315 -23 -95 0
97315 -23 -127 0
97315 -24 -25 0
97315 -24 -39 0
97315 -24 -51 0
97315 -24 -52 0
97315 -24 -56 0
97315 -24 -60 0
97315 -24 -61 0
97315 -24 -62 0
97315 -24 -66 0
97315 -24 -72 0
97315 -24 -77 0
97315 -24 -78 0
97315 -24 -79 0
97315 -24 -96 0
97315 -24 -104 0
97315 -24 -108 0
97315 -24 -109 0
97315 -24 -117 0
97315 -24 -119 0
97315 -24 -125 0
97315 -24 -128 0
97315 -24 -129 0
97315 -24 -130 0
97315 -24 -58 0
97315 -24 -76 0
97315 -24 -54 0
97315 -24 -73 0
97315 -24 -83 0
97315 -24 -94 0
97315 -25 -39 0
97315 -25 -51 0
97315 -25 -52 0
97315 -25 -56 0
97315 -25 -60 0
97315 -25 -61 0
97315 -25 -62 0
97315 -25 -66 0
97315 -25 -72 0
97315 -25 -77 0
97315 -25 -78 0
97315 -25 -79 0
97315 -25 -96 0
97315 -25 -104 0
97315 -25 -108 0
97315 -25 -109 0
97315 -25 -117 0
97315 -25 -119 0
97315 -25 -125 0
97315 -25 -128 0
97315 -25 -129 0
97315 -25 -130 0
97315 -25 -55 0
97315 -25 -58 0
97315 -25 -76 0
97315 -25 -84 0
97315 -25 -95 0
97315 -25 -121 0
97315 -25 -71 0
97315 -25 -127 0
97315 -26 -32 0
97315 -26 -41 0
97315 -26 -46 0
97315 -26 -27 0
97315 -26 -80 0
97315 -26 -81 0
97315 -26 -102 0
97315 -26 -103 0
97315 -27 -33 0
97315 -27 -34 0
97315 -27 -42 0
97315 -27 -47 0
97315 -27 -48 0
97315 -27 -85 0
97315 -27 -110 0
97315 -27 -40 0
97315 -27 -80 0
97315 -27 -81 0
97315 -27 -116 0
97315 -27 -102 0
97315 -27 -103 0
97315 -28 -29 0
97315 -29 -32 0
97315 -29 -33 0
97315 -29 -34 0
97315 -29 -41 0
97315 -29 -42 0
97315 -29 -46 0
97315 -29 -47 0
97315 -29 -48 0
97315 -29 -110 0
97315 -29 -59 0
97315 -29 -118 0
97315 -30 -33 0
97315 -30 -44 0
97315 -30 -47 0
97315 -30 -67 0
97315 -30 -68 0
97315 -30 -120 0
97315 -30 -121 0
97315 -30 -126 0
97315 -30 -127 0
97315 -30 -128 0
97315 -30 -31 0
97315 -30 -32 0
97315 -30 -34 0
97315 -31 -45 0
97315 -31 -64 0
97315 -31 -65 0
97315 -31 -66 0
97315 -31 -98 0
97315 -31 -124 0
97315 -31 -125 0
97315 -31 -32 0
97315 -31 -33 0
97315 -31 -34 0
97315 -32 -41 0
97315 -32 -46 0
97315 -32 -34 0
97315 -32 -48 0
97315 -32 -97 0
97315 -32 -103 0
97315 -32 -33 0
97315 -32 -42 0
97315 -32 -47 0
97315 -32 -110 0
97315 -33 -34 0
97315 -33 -42 0
97315 -33 -47 0
97315 -33 -48 0
97315 -33 -85 0
97315 -33 -110 0
97315 -33 -41 0
97315 -33 -46 0
97315 -33 -44 0
97315 -33 -67 0
97315 -33 -68 0
97315 -33 -120 0
97315 -33 -121 0
97315 -33 -126 0
97315 -33 -127 0
97315 -33 -128 0
97315 -33 -70 0
97315 -33 -71 0
97315 -33 -72 0
97315 -33 -73 0
97315 -33 -114 0
97315 -33 -115 0
97315 -34 -42 0
97315 -34 -47 0
97315 -34 -48 0
97315 -34 -85 0
97315 -34 -110 0
97315 -34 -40 0
97315 -34 -80 0
97315 -34 -81 0
97315 -34 -116 0
97315 -34 -46 0
97315 -34 -97 0
97315 -34 -103 0
97315 -34 -41 0
97315 -35 -36 0
97315 -35 -51 0
97315 -35 -89 0
97315 -35 -91 0
97315 -35 -108 0
97315 -35 -37 0
97315 -35 -64 0
97315 -35 -38 0
97315 -35 -39 0
97315 -36 -38 0
97315 -36 -51 0
97315 -36 -52 0
97315 -36 -53 0
97315 -36 -54 0
97315 -36 -55 0
97315 -36 -56 0
97315 -36 -60 0
97315 -36 -61 0
97315 -36 -62 0
97315 -36 -65 0
97315 -36 -66 0
97315 -36 -68 0
97315 -36 -70 0
97315 -36 -71 0
97315 -36 -72 0
97315 -36 -73 0
97315 -36 -74 0
97315 -36 -82 0
97315 -36 -83 0
97315 -36 -84 0
97315 -36 -91 0
97315 -36 -92 0
97315 -36 -94 0
97315 -36 -95 0
97315 -36 -96 0
97315 -36 -108 0
97315 -36 -109 0
97315 -36 -115 0
97315 -36 -119 0
97315 -36 -124 0
97315 -36 -125 0
97315 -36 -126 0
97315 -36 -127 0
97315 -36 -128 0
97315 -36 -129 0
97315 -36 -130 0
97315 -36 -89 0
97315 -36 -81 0
97315 -36 -87 0
97315 -36 -113 0
97315 -36 -39 0
97315 -36 -37 0
97315 -37 -38 0
97315 -37 -52 0
97315 -37 -80 0
97315 -37 -81 0
97315 -37 -82 0
97315 -37 -83 0
97315 -37 -84 0
97315 -37 -86 0
97315 -37 -87 0
97315 -37 -90 0
97315 -37 -92 0
97315 -37 -109 0
97315 -37 -119 0
97315 -37 -64 0
97315 -37 -39 0
97315 -38 -51 0
97315 -38 -52 0
97315 -38 -53 0
97315 -38 -54 0
97315 -38 -55 0
97315 -38 -56 0
97315 -38 -60 0
97315 -38 -61 0
97315 -38 -62 0
97315 -38 -65 0
97315 -38 -66 0
97315 -38 -68 0
97315 -38 -70 0
97315 -38 -71 0
97315 -38 -72 0
97315 -38 -73 0
97315 -38 -74 0
97315 -38 -82 0
97315 -38 -83 0
97315 -38 -84 0
97315 -38 -91 0
97315 -38 -92 0
97315 -38 -94 0
97315 -38 -95 0
97315 -38 -96 0
97315 -38 -108 0
97315 -38 -109 0
97315 -38 -115 0
97315 -38 -119 0
97315 -38 -124 0
97315 -38 -125 0
97315 -38 -126 0
97315 -38 -127 0
97315 -38 -128 0
97315 -38 -129 0
97315 -38 -130 0
97315 -38 -80 0
97315 -38 -81 0
97315 -38 -86 0
97315 -38 -87 0
97315 -38 -90 0
97315 -38 -113 0
97315 -38 -39 0
97315 -39 -51 0
97315 -39 -52 0
97315 -39 -56 0
97315 -39 -60 0
97315 -39 -61 0
97315 -39 -62 0
97315 -39 -66 0
97315 -39 -72 0
97315 -39 -77 0
97315 -39 -78 0
97315 -39 -79 0
97315 -39 -96 0
97315 -39 -104 0
97315 -39 -108 0
97315 -39 -109 0
97315 -39 -117 0
97315 -39 -119 0
97315 -39 -125 0
97315 -39 -128 0
97315 -39 -129 0
97315 -39 -130 0
97315 -39 -65 0
97315 -39 -124 0
97315 -39 -50 0
97315 -39 -93 0
97315 -39 -107 0
97315 -40 -42 0
97315 -40 -48 0
97315 -40 -80 0
97315 -40 -81 0
97315 -40 -116 0
97315 -40 -41 0
97315 -41 -46 0
97315 -41 -42 0
97315 -41 -74 0
97315 -41 -118 0
97315 -41 -47 0
97315 -41 -48 0
97315 -41 -110 0
97315 -42 -47 0
97315 -42 -48 0
97315 -42 -85 0
97315 -42 -110 0
97315 -42 -80 0
97315 -42 -81 0
97315 -42 -116 0
97315 -42 -74 0
97315 -42 -118 0
97315 -42 -46 0
97315 -43 -82 0
97315 -43 -83 0
97315 -43 -84 0
97315 -43 -101 0
97315 -44 -47 0
97315 -44 -67 0
97315 -44 -68 0
97315 -44 -120 0
97315 -44 -121 0
97315 -44 -126 0
97315 -44 -127 0
97315 -44 -128 0
97315 -44 -45 0
97315 -44 -46 0
97315 -44 -48 0
97315 -45 -64 0
97315 -45 -65 0
97315 -45 -66 0
97315 -45 -98 0
97315 -45 -124 0
97315 -45 -125 0
97315 -45 -46 0
97315 -45 -47 0
97315 -45 -48 0
97315 -46 -48 0
97315 -46 -97 0
97315 -46 -103 0
97315 -46 -47 0
97315 -46 -110 0
97315 -47 -48 0
97315 -47 -85 0
97315 -47 -110 0
97315 -47 -67 0
97315 -47 -68 0
97315 -47 -120 0
97315 -47 -121 0
97315 -47 -126 0
97315 -47 -127 0
97315 -47 -128 0
97315 -47 -70 0
97315 -47 -71 0
97315 -47 -72 0
97315 -47 -73 0
97315 -47 -114 0
97315 -47 -115 0
97315 -48 -85 0
97315 -48 -110 0
97315 -48 -80 0
97315 -48 -81 0
97315 -48 -116 0
97315 -48 -97 0
97315 -48 -103 0
97315 -49 -100 0
97315 -49 -122 0
97315 -49 -123 0
97315 -49 -107 0
97315 -49 -108 0
97315 -49 -109 0
97315 -50 -93 0
97315 -50 -107 0
97315 -50 -51 0
97315 -50 -52 0
97315 -51 -52 0
97315 -51 -56 0
97315 -51 -60 0
97315 -51 -61 0
97315 -51 -62 0
97315 -51 -66 0
97315 -51 -72 0
97315 -51 -77 0
97315 -51 -78 0
97315 -51 -79 0
97315 -51 -96 0
97315 -51 -104 0
97315 -51 -108 0
97315 -51 -109 0
97315 -51 -117 0
97315 -51 -119 0
97315 -51 -125 0
97315 -51 -128 0
97315 -51 -129 0
97315 -51 -130 0
97315 -51 -53 0
97315 -51 -54 0
97315 -51 -55 0
97315 -51 -65 0
97315 -51 -68 0
97315 -51 -70 0
97315 -51 -71 0
97315 -51 -73 0
97315 -51 -74 0
97315 -51 -82 0
97315 -51 -83 0
97315 -51 -84 0
97315 -51 -91 0
97315 -51 -92 0
97315 -51 -94 0
97315 -51 -95 0
97315 -51 -115 0
97315 -51 -124 0
97315 -51 -126 0
97315 -51 -127 0
97315 -51 -89 0
97315 -51 -81 0
97315 -51 -87 0
97315 -51 -113 0
97315 -52 -56 0
97315 -52 -60 0
97315 -52 -61 0
97315 -52 -62 0
97315 -52 -66 0
97315 -52 -72 0
97315 -52 -77 0
97315 -52 -78 0
97315 -52 -79 0
97315 -52 -96 0
97315 -52 -104 0
97315 -52 -108 0
97315 -52 -109 0
97315 -52 -117 0
97315 -52 -119 0
97315 -52 -125 0
97315 -52 -128 0
97315 -52 -129 0
97315 -52 -130 0
97315 -52 -53 0
97315 -52 -54 0
97315 -52 -55 0
97315 -52 -65 0
97315 -52 -68 0
97315 -52 -70 0
97315 -52 -71 0
97315 -52 -73 0
97315 -52 -74 0
97315 -52 -82 0
97315 -52 -83 0
97315 -52 -84 0
97315 -52 -91 0
97315 -52 -92 0
97315 -52 -94 0
97315 -52 -95 0
97315 -52 -115 0
97315 -52 -124 0
97315 -52 -126 0
97315 -52 -127 0
97315 -52 -80 0
97315 -52 -81 0
97315 -52 -86 0
97315 -52 -87 0
97315 -52 -90 0
97315 -52 -113 0
97315 -53 -54 0
97315 -53 -55 0
97315 -53 -56 0
97315 -53 -60 0
97315 -53 -61 0
97315 -53 -62 0
97315 -53 -65 0
97315 -53 -66 0
97315 -53 -68 0
97315 -53 -70 0
97315 -53 -71 0
97315 -53 -72 0
97315 -53 -73 0
97315 -53 -74 0
97315 -53 -82 0
97315 -53 -83 0
97315 -53 -84 0
97315 -53 -91 0
97315 -53 -92 0
97315 -53 -94 0
97315 -53 -95 0
97315 -53 -96 0
97315 -53 -108 0
97315 -53 -109 0
97315 -53 -115 0
97315 -53 -119 0
97315 -53 -124 0
97315 -53 -125 0
97315 -53 -126 0
97315 -53 -127 0
97315 -53 -128 0
97315 -53 -129 0
97315 -53 -130 0
97315 -54 -55 0
97315 -54 -56 0
97315 -54 -60 0
97315 -54 -61 0
97315 -54 -62 0
97315 -54 -65 0
97315 -54 -66 0
97315 -54 -68 0
97315 -54 -70 0
97315 -54 -71 0
97315 -54 -72 0
97315 -54 -73 0
97315 -54 -74 0
97315 -54 -82 0
97315 -54 -83 0
97315 -54 -84 0
97315 -54 -91 0
97315 -54 -92 0
97315 -54 -94 0
97315 -54 -95 0
97315 -54 -96 0
97315 -54 -108 0
97315 -54 -109 0
97315 -54 -115 0
97315 -54 -119 0
97315 -54 -124 0
97315 -54 -125 0
97315 -54 -126 0
97315 -54 -127 0
97315 -54 -128 0
97315 -54 -129 0
97315 -54 -130 0
97315 -54 -78 0
97315 -54 -101 0
97315 -54 -103 0
97315 -55 -56 0
97315 -55 -60 0
97315 -55 -61 0
97315 -55 -62 0
97315 -55 -65 0
97315 -55 -66 0
97315 -55 -68 0
97315 -55 -70 0
97315 -55 -71 0
97315 -55 -72 0
97315 -55 -73 0
97315 -55 -74 0
97315 -55 -82 0
97315 -55 -83 0
97315 -55 -84 0
97315 -55 -91 0
97315 -55 -92 0
97315 -55 -94 0
97315 -55 -95 0
97315 -55 -96 0
97315 -55 -108 0
97315 -55 -109 0
97315 -55 -115 0
97315 -55 -119 0
97315 -55 -124 0
97315 -55 -125 0
97315 -55 -126 0
97315 -55 -127 0
97315 -55 -128 0
97315 -55 -129 0
97315 -55 -130 0
97315 -55 -58 0
97315 -55 -76 0
97315 -55 -79 0
97315 -55 -121 0
97315 -55 -77 0
97315 -55 -101 0
97315 -55 -103 0
97315 -56 -60 0
97315 -56 -61 0
97315 -56 -62 0
97315 -56 -66 0
97315 -56 -72 0
97315 -56 -77 0
97315 -56 -78 0
97315 -56 -79 0
97315 -56 -96 0
97315 -56 -104 0
97315 -56 -108 0
97315 -56 -109 0
97315 -56 -117 0
97315 -56 -119 0
97315 -56 -125 0
97315 -56 -128 0
97315 -56 -129 0
97315 -56 -130 0
97315 -56 -59 0
97315 -56 -75 0
97315 -56 -76 0
97315 -56 -93 0
97315 -56 -65 0
97315 -56 -68 0
97315 -56 -70 0
97315 -56 -71 0
97315 -56 -73 0
97315 -56 -74 0
97315 -56 -82 0
97315 -56 -83 0
97315 -56 -84 0
97315 -56 -91 0
97315 -56 -92 0
97315 -56 -94 0
97315 -56 -95 0
97315 -56 -115 0
97315 -56 -124 0
97315 -56 -126 0
97315 -56 -127 0
97315 -56 -58 0
97315 -56 -121 0
97315 -56 -101 0
97315 -56 -103 0
97315 -57 -75 0
97315 -57 -77 0
97315 -57 -58 0
97315 -58 -76 0
97315 -58 -79 0
97315 -58 -84 0
97315 -58 -95 0
97315 -58 -96 0
97315 -58 -121 0
97315 -58 -78 0
97315 -59 -72 0
97315 -59 -75 0
97315 -59 -76 0
97315 -59 -93 0
97315 -59 -96 0
97315 -59 -128 0
97315 -59 -118 0
97315 -59 -60 0
97315 -60 -61 0
97315 -60 -62 0
97315 -60 -66 0
97315 -60 -72 0
97315 -60 -77 0
97315 -60 -78 0
97315 -60 -79 0
97315 -60 -96 0
97315 -60 -104 0
97315 -60 -108 0
97315 -60 -109 0
97315 -60 -117 0
97315 -60 -119 0
97315 -60 -125 0
97315 -60 -128 0
97315 -60 -129 0
97315 -60 -130 0
97315 -60 -65 0
97315 -60 -68 0
97315 -60 -70 0
97315 -60 -71 0
97315 -60 -73 0
97315 -60 -74 0
97315 -60 -82 0
97315 -60 -83 0
97315 -60 -84 0
97315 -60 -91 0
97315 -60 -92 0
97315 -60 -94 0
97315 -60 -95 0
97315 -60 -115 0
97315 -60 -124 0
97315 -60 -126 0
97315 -60 -127 0
97315 -61 -62 0
97315 -61 -66 0
97315 -61 -72 0
97315 -61 -77 0
97315 -61 -78 0
97315 -61 -79 0
97315 -61 -96 0
97315 -61 -104 0
97315 -61 -108 0
97315 -61 -109 0
97315 -61 -117 0
97315 -61 -119 0
97315 -61 -125 0
97315 -61 -128 0
97315 -61 -129 0
97315 -61 -130 0
97315 -61 -65 0
97315 -61 -68 0
97315 -61 -70 0
97315 -61 -71 0
97315 -61 -73 0
97315 -61 -74 0
97315 -61 -82 0
97315 -61 -83 0
97315 -61 -84 0
97315 -61 -91 0
97315 -61 -92 0
97315 -61 -94 0
97315 -61 -95 0
97315 -61 -115 0
97315 -61 -124 0
97315 -61 -126 0
97315 -61 -127 0
97315 -62 -66 0
97315 -62 -72 0
97315 -62 -77 0
97315 -62 -78 0
97315 -62 -79 0
97315 -62 -96 0
97315 -62 -104 0
97315 -62 -108 0
97315 -62 -109 0
97315 -62 -117 0
97315 -62 -119 0
97315 -62 -125 0
97315 -62 -128 0
97315 -62 -129 0
97315 -62 -130 0
97315 -62 -63 0
97315 -62 -106 0
97315 -62 -107 0
97315 -62 -123 0
97315 -62 -65 0
97315 -62 -68 0
97315 -62 -70 0
97315 -62 -71 0
97315 -62 -73 0
97315 -62 -74 0
97315 -62 -82 0
97315 -62 -83 0
97315 -62 -84 0
97315 -62 -91 0
97315 -62 -92 0
97315 -62 -94 0
97315 -62 -95 0
97315 -62 -115 0
97315 -62 -124 0
97315 -62 -126 0
97315 -62 -127 0
97315 -63 -130 0
97315 -63 -66 0
97315 -63 -98 0
97315 -63 -125 0
97315 -64 -65 0
97315 -64 -66 0
97315 -64 -98 0
97315 -64 -124 0
97315 -64 -125 0
97315 -64 -67 0
97315 -64 -68 0
97315 -65 -66 0
97315 -65 -98 0
97315 -65 -124 0
97315 -65 -125 0
97315 -65 -68 0
97315 -65 -70 0
97315 -65 -71 0
97315 -65 -72 0
97315 -65 -73 0
97315 -65 -74 0
97315 -65 -82 0
97315 -65 -83 0
97315 -65 -84 0
97315 -65 -91 0
97315 -65 -92 0
97315 -65 -94 0
97315 -65 -95 0
97315 -65 -96 0
97315 -65 -108 0
97315 -65 -109 0
97315 -65 -115 0
97315 -65 -119 0
97315 -65 -126 0
97315 -65 -127 0
97315 -65 -128 0
97315 -65 -129 0
97315 -65 -130 0
97315 -65 -81 0
97315 -65 -87 0
97315 -65 -113 0
97315 -65 -67 0
97315 -66 -72 0
97315 -66 -77 0
97315 -66 -78 0
97315 -66 -79 0
97315 -66 -96 0
97315 -66 -104 0
97315 -66 -108 0
97315 -66 -109 0
97315 -66 -117 0
97315 -66 -119 0
97315 -66 -125 0
97315 -66 -128 0
97315 -66 -129 0
97315 -66 -130 0
97315 -66 -106 0
97315 -66 -107 0
97315 -66 -123 0
97315 -66 -98 0
97315 -66 -124 0
97315 -66 -68 0
97315 -66 -70 0
97315 -66 -71 0
97315 -66 -73 0
97315 -66 -74 0
97315 -66 -82 0
97315 -66 -83 0
97315 -66 -84 0
97315 -66 -91 0
97315 -66 -92 0
97315 -66 -94 0
97315 -66 -95 0
97315 -66 -115 0
97315 -66 -126 0
97315 -66 -127 0
97315 -66 -81 0
97315 -66 -87 0
97315 -66 -113 0
97315 -66 -67 0
97315 -67 -68 0
97315 -67 -120 0
97315 -67 -121 0
97315 -67 -126 0
97315 -67 -127 0
97315 -67 -128 0
97315 -67 -89 0
97315 -67 -90 0
97315 -67 -114 0
97315 -67 -116 0
97315 -68 -70 0
97315 -68 -71 0
97315 -68 -72 0
97315 -68 -73 0
97315 -68 -74 0
97315 -68 -82 0
97315 -68 -83 0
97315 -68 -84 0
97315 -68 -91 0
97315 -68 -92 0
97315 -68 -94 0
97315 -68 -95 0
97315 -68 -96 0
97315 -68 -108 0
97315 -68 -109 0
97315 -68 -115 0
97315 -68 -119 0
97315 -68 -124 0
97315 -68 -125 0
97315 -68 -126 0
97315 -68 -127 0
97315 -68 -128 0
97315 -68 -129 0
97315 -68 -130 0
97315 -68 -120 0
97315 -68 -121 0
97315 -68 -81 0
97315 -68 -87 0
97315 -68 -113 0
97315 -69 -81 0
97315 -69 -87 0
97315 -69 -113 0
97315 -69 -70 0
97315 -69 -71 0
97315 -69 -72 0
97315 -69 -73 0
97315 -70 -71 0
97315 -70 -72 0
97315 -70 -73 0
97315 -70 -74 0
97315 -70 -82 0
97315 -70 -83 0
97315 -70 -84 0
97315 -70 -91 0
97315 -70 -92 0
97315 -70 -94 0
97315 -70 -95 0
97315 -70 -96 0
97315 -70 -108 0
97315 -70 -109 0
97315 -70 -115 0
97315 -70 -119 0
97315 -70 -124 0
97315 -70 -125 0
97315 -70 -126 0
97315 -70 -127 0
97315 -70 -128 0
97315 -70 -129 0
97315 -70 -130 0
97315 -70 -114 0
97315 -71 -72 0
97315 -71 -73 0
97315 -71 -74 0
97315 -71 -82 0
97315 -71 -83 0
97315 -71 -84 0
97315 -71 -91 0
97315 -71 -92 0
97315 -71 -94 0
97315 -71 -95 0
97315 -71 -96 0
97315 -71 -108 0
97315 -71 -109 0
97315 -71 -115 0
97315 -71 -119 0
97315 -71 -124 0
97315 -71 -125 0
97315 -71 -126 0
97315 -71 -127 0
97315 -71 -128 0
97315 -71 -129 0
97315 -71 -130 0
97315 -71 -93 0
97315 -71 -121 0
97315 -71 -114 0
97315 -71 -77 0
97315 -71 -79 0
97315 -72 -77 0
97315 -72 -78 0
97315 -72 -79 0
97315 -72 -96 0
97315 -72 -104 0
97315 -72 -108 0
97315 -72 -109 0
97315 -72 -117 0
97315 -72 -119 0
97315 -72 -125 0
97315 -72 -128 0
97315 -72 -129 0
97315 -72 -130 0
97315 -72 -75 0
97315 -72 -76 0
97315 -72 -93 0
97315 -72 -73 0
97315 -72 -74 0
97315 -72 -82 0
97315 -72 -83 0
97315 -72 -84 0
97315 -72 -91 0
97315 -72 -92 0
97315 -72 -94 0
97315 -72 -95 0
97315 -72 -115 0
97315 -72 -124 0
97315 -72 -126 0
97315 -72 -127 0
97315 -72 -121 0
97315 -72 -114 0
97315 -73 -74 0
97315 -73 -82 0
97315 -73 -83 0
97315 -73 -84 0
97315 -73 -91 0
97315 -73 -92 0
97315 -73 -94 0
97315 -73 -95 0
97315 -73 -96 0
97315 -73 -108 0
97315 -73 -109 0
97315 -73 -115 0
97315 -73 -119 0
97315 -73 -124 0
97315 -73 -125 0
97315 -73 -126 0
97315 -73 -127 0
97315 -73 -128 0
97315 -73 -129 0
97315 -73 -130 0
97315 -73 -102 0
97315 -73 -120 0
97315 -73 -114 0
97315 -73 -78 0
97315 -74 -82 0
97315 -74 -83 0
97315 -74 -84 0
97315 -74 -91 0
97315 -74 -92 0
97315 -74 -94 0
97315 -74 -95 0
97315 -74 -96 0
97315 -74 -108 0
97315 -74 -109 0
97315 -74 -115 0
97315 -74 -119 0
97315 -74 -124 0
97315 -74 -125 0
97315 -74 -126 0
97315 -74 -127 0
97315 -74 -128 0
97315 -74 -129 0
97315 -74 -130 0
97315 -74 -118 0
97315 -75 -76 0
97315 -75 -93 0
97315 -75 -96 0
97315 -75 -128 0
97315 -75 -77 0
97315 -75 -78 0
97315 -75 -79 0
97315 -76 -93 0
97315 -76 -96 0
97315 -76 -128 0
97315 -76 -79 0
97315 -76 -84 0
97315 -76 -95 0
97315 -76 -121 0
97315 -76 -78 0
97315 -76 -77 0
97315 -77 -78 0
97315 -77 -79 0
97315 -77 -96 0
97315 -77 -104 0
97315 -77 -108 0
97315 -77 -109 0
97315 -77 -117 0
97315 -77 -119 0
97315 -77 -125 0
97315 -77 -128 0
97315 -77 -129 0
97315 -77 -130 0
97315 -77 -84 0
97315 -77 -95 0
97315 -77 -127 0
97315 -78 -79 0
97315 -78 -96 0
97315 -78 -104 0
97315 -78 -108 0
97315 -78 -109 0
97315 -78 -117 0
97315 -78 -119 0
97315 -78 -125 0
97315 -78 -128 0
97315 -78 -129 0
97315 -78 -130 0
97315 -78 -83 0
97315 -78 -94 0
97315 -79 -96 0
97315 -79 -104 0
97315 -79 -108 0
97315 -79 -109 0
97315 -79 -117 0
97315 -79 -119 0
97315 -79 -125 0
97315 -79 -128 0
97315 -79 -129 0
97315 -79 -130 0
97315 -79 -84 0
97315 -79 -95 0
97315 -79 -121 0
97315 -79 -127 0
97315 -80 -81 0
97315 -80 -116 0
97315 -80 -82 0
97315 -80 -83 0
97315 -80 -84 0
97315 -80 -86 0
97315 -80 -87 0
97315 -80 -90 0
97315 -80 -92 0
97315 -80 -109 0
97315 -80 -119 0
97315 -80 -102 0
97315 -80 -103 0
97315 -80 -112 0
97315 -81 -116 0
97315 -81 -82 0
97315 -81 -83 0
97315 -81 -84 0
97315 -81 -86 0
97315 -81 -87 0
97315 -81 -90 0
97315 -81 -92 0
97315 -81 -109 0
97315 -81 -119 0
97315 -81 -102 0
97315 -81 -103 0
97315 -81 -91 0
97315 -81 -108 0
97315 -81 -113 0
97315 -81 -115 0
97315 -81 -129 0
97315 -81 -130 0
97315 -82 -83 0
97315 -82 -84 0
97315 -82 -91 0
97315 -82 -92 0
97315 -82 -94 0
97315 -82 -95 0
97315 -82 -96 0
97315 -82 -108 0
97315 -82 -109 0
97315 -82 -115 0
97315 -82 -119 0
97315 -82 -124 0
97315 -82 -125 0
97315 -82 -126 0
97315 -82 -127 0
97315 -82 -128 0
97315 -82 -129 0
97315 -82 -130 0
97315 -82 -86 0
97315 -82 -87 0
97315 -82 -90 0
97315 -82 -101 0
97315 -82 -113 0
97315 -83 -84 0
97315 -83 -91 0
97315 -83 -92 0
97315 -83 -94 0
97315 -83 -95 0
97315 -83 -96 0
97315 -83 -108 0
97315 -83 -109 0
97315 -83 -115 0
97315 -83 -119 0
97315 -83 -124 0
97315 -83 -125 0
97315 -83 -126 0
97315 -83 -127 0
97315 -83 -128 0
97315 -83 -129 0
97315 -83 -130 0
97315 -83 -86 0
97315 -83 -87 0
97315 -83 -90 0
97315 -83 -101 0
97315 -83 -113 0
97315 -83 -103 0
97315 -84 -91 0
97315 -84 -92 0
97315 -84 -94 0
97315 -84 -95 0
97315 -84 -96 0
97315 -84 -108 0
97315 -84 -109 0
97315 -84 -115 0
97315 -84 -119 0
97315 -84 -124 0
97315 -84 -125 0
97315 -84 -126 0
97315 -84 -127 0
97315 -84 -128 0
97315 -84 -129 0
97315 -84 -130 0
97315 -84 -86 0
97315 -84 -87 0
97315 -84 -90 0
97315 -84 -121 0
97315 -84 -101 0
97315 -84 -113 0
97315 -84 -103 0
97315 -85 -110 0
97315 -86 -87 0
97315 -86 -90 0
97315 -86 -92 0
97315 -86 -109 0
97315 -86 -119 0
97315 -86 -112 0
97315 -87 -90 0
97315 -87 -92 0
97315 -87 -109 0
97315 -87 -119 0
97315 -87 -91 0
97315 -87 -108 0
97315 -87 -113 0
97315 -87 -115 0
97315 -87 -129 0
97315 -87 -130 0
97315 -88 -100 0
97315 -89 -91 0
97315 -89 -108 0
97315 -89 -90 0
97315 -89 -114 0
97315 -89 -116 0
97315 -89 -92 0
97315 -89 -93 0
97315 -90 -92 0
97315 -90 -109 0
97315 -90 -119 0
97315 -90 -114 0
97315 -90 -116 0
97315 -90 -91 0
97315 -90 -93 0
97315 -91 -92 0
97315 -91 -94 0
97315 -91 -95 0
97315 -91 -96 0
97315 -91 -108 0
97315 -91 -109 0
97315 -91 -115 0
97315 -91 -119 0
97315 -91 -124 0
97315 -91 -125 0
97315 -91 -126 0
97315 -91 -127 0
97315 -91 -128 0
97315 -91 -129 0
97315 -91 -130 0
97315 -91 -113 0
97315 -91 -93 0
97315 -92 -94 0
97315 -92 -95 0
97315 -92 -96 0
97315 -92 -108 0
97315 -92 -109 0
97315 -92 -115 0
97315 -92 -119 0
97315 -92 -124 0
97315 -92 -125 0
97315 -92 -126 0
97315 -92 -127 0
97315 -92 -128 0
97315 -92 -129 0
97315 -92 -130 0
97315 -92 -113 0
97315 -92 -93 0
97315 -93 -96 0
97315 -93 -128 0
97315 -93 -121 0
97315 -93 -127 0
97315 -93 -107 0
97315 -94 -95 0
97315 -94 -96 0
97315 -94 -108 0
97315 -94 -109 0
97315 -94 -115 0
97315 -94 -119 0
97315 -94 -124 0
97315 -94 -125 0
97315 -94 -126 0
97315 -94 -127 0
97315 -94 -128 0
97315 -94 -129 0
97315 -94 -130 0
97315 -95 -96 0
97315 -95 -108 0
97315 -95 -109 0
97315 -95 -115 0
97315 -95 -119 0
97315 -95 -124 0
97315 -95 -125 0
97315 -95 -126 0
97315 -95 -127 0
97315 -95 -128 0
97315 -95 -129 0
97315 -95 -130 0
97315 -95 -121 0
97315 -96 -104 0
97315 -96 -108 0
97315 -96 -109 0
97315 -96 -117 0
97315 -96 -119 0
97315 -96 -125 0
97315 -96 -128 0
97315 -96 -129 0
97315 -96 -130 0
97315 -96 -115 0
97315 -96 -124 0
97315 -96 -126 0
97315 -96 -127 0
97315 -96 -121 0
97315 -97 -103 0
97315 -98 -124 0
97315 -98 -125 0
97315 -99 -100 0
97315 -100 -122 0
97315 -100 -123 0
97315 -101 -103 0
97315 -101 -102 0
97315 -102 -120 0
97315 -102 -103 0
97315 -102 -116 0
97315 -104 -108 0
97315 -104 -109 0
97315 -104 -117 0
97315 -104 -119 0
97315 -104 -125 0
97315 -104 -128 0
97315 -104 -129 0
97315 -104 -130 0
97315 -104 -106 0
97315 -104 -107 0
97315 -104 -123 0
97315 -105 -122 0
97315 -105 -106 0
97315 -105 -107 0
97315 -105 -108 0
97315 -105 -109 0
97315 -106 -107 0
97315 -106 -108 0
97315 -106 -109 0
97315 -106 -123 0
97315 -106 -125 0
97315 -106 -130 0
97315 -107 -108 0
97315 -107 -109 0
97315 -107 -123 0
97315 -107 -125 0
97315 -107 -130 0
97315 -108 -109 0
97315 -108 -117 0
97315 -108 -119 0
97315 -108 -125 0
97315 -108 -128 0
97315 -108 -129 0
97315 -108 -130 0
97315 -108 -123 0
97315 -108 -115 0
97315 -108 -124 0
97315 -108 -126 0
97315 -108 -127 0
97315 -108 -113 0
97315 -109 -117 0
97315 -109 -119 0
97315 -109 -125 0
97315 -109 -128 0
97315 -109 -129 0
97315 -109 -130 0
97315 -109 -123 0
97315 -109 -115 0
97315 -109 -124 0
97315 -109 -126 0
97315 -109 -127 0
97315 -109 -113 0
97315 -112 -113 0
97315 -112 -114 0
97315 -112 -115 0
97315 -112 -116 0
97315 -113 -115 0
97315 -113 -119 0
97315 -113 -129 0
97315 -113 -130 0
97315 -113 -114 0
97315 -113 -116 0
97315 -114 -116 0
97315 -114 -115 0
97315 -115 -119 0
97315 -115 -129 0
97315 -115 -130 0
97315 -115 -124 0
97315 -115 -125 0
97315 -115 -126 0
97315 -115 -127 0
97315 -115 -128 0
97315 -115 -116 0
97315 -117 -119 0
97315 -117 -125 0
97315 -117 -128 0
97315 -117 -129 0
97315 -117 -130 0
97315 -119 -125 0
97315 -119 -128 0
97315 -119 -129 0
97315 -119 -130 0
97315 -119 -124 0
97315 -119 -126 0
97315 -119 -127 0
97315 -120 -121 0
97315 -120 -126 0
97315 -120 -127 0
97315 -120 -128 0
97315 -121 -127 0
97315 -121 -128 0
97315 -121 -126 0
97315 -122 -123 0
97315 -123 -125 0
97315 -123 -130 0
97315 -124 -125 0
97315 -124 -126 0
97315 -124 -127 0
97315 -124 -128 0
97315 -124 -129 0
97315 -124 -130 0
97315 -125 -126 0
97315 -125 -127 0
97315 -125 -128 0
97315 -125 -129 0
97315 -125 -130 0
97315 -126 -127 0
97315 -126 -128 0
97315 -126 -129 0
97315 -126 -130 0
97315 -127 -128 0
97315 -127 -129 0
97315 -127 -130 0
97315 -128 -129 0
97315 -128 -130 0
97315 -129 -130 0
